\* Minimize_Sum_xi_L2_R3 *\
Minimize
OBJ: 0.25 x_2 + 0.111111111111 x_3
Subject To
Constraint_1_L2_R3: 0.5 x_2 + 0.333333333333 x_3 >= 0.166676666667
Constraint_2_L2_R3: 0.5 x_2 + 0.333333333333 x_3 <= 0.50001
Bounds
 0 <= x_2
 0 <= x_3
Generals
x_2
x_3
End
